SATISFIABLE
Some World View: in={'$not$ n_eligible(walt)', '$not$ eligible(pat)', '$not$ n_eligible(tim)', '$not$ n_eligible(mike)', '$not$ n_eligible(zelda)', '$not$ eligible(ben)', '$not$ eligible(mike)', '$not$ n_eligible(zac)', '$not$ n_eligible(sam)', '$not$ n_eligible(will)', '$not$ eligible(zac)', '$not$ n_eligible(art)', '$not$ eligible(tom)', '$not$ n_eligible(ann)', '$not$ eligible(bob)', '$not$ eligible(ann)', '$not$ eligible(peter)', '$not$ eligible(van)', '$not$ eligible(zelda)', '$not$ n_eligible(paul)', '$not$ n_eligible(ben)', '$not$ n_eligible(peter)', '$not$ n_eligible(yan)', '$not$ n_eligible(tom)', '$not$ n_eligible(bob)', '$not$ n_eligible(pat)', '$not$ n_eligible(dan)', '$not$ n_eligible(nancy)', '$not$ n_eligible(vic)', '$not$ n_eligible(dee)', '$not$ n_eligible(mary)', '$not$ eligible(yan)'}, out={'$not$ eligible(paul)', '$not$ eligible(tim)', '$not$ eligible(mary)', '$not$ eligible(sam)', '$not$ eligible(walt)', '$not$ eligible(will)', '$not$ eligible(art)', '$not$ eligible(dee)', '$not$ eligible(vic)', '$not$ n_eligible(van)', '$not$ eligible(dan)', '$not$ eligible(nancy)'}
  Some Answer Set of this World View:
    eligible(art)
    eligible(dan)
    eligible(dee)
    eligible(mary)
    eligible(nancy)
    eligible(paul)
    eligible(peter)
    eligible(sam)
    eligible(tim)
    eligible(vic)
    eligible(walt)
    eligible(will)
    fairGPA(ann)
    fairGPA(dee)
    fairGPA(mary)
    fairGPA(mike)
    fairGPA(pat)
    fairGPA(paul)
    fairGPA(sam)
    fairGPA(vic)
    fairGPA(walt)
    fairGPA(yan)
    highGPA(art)
    highGPA(dan)
    highGPA(nancy)
    highGPA(peter)
    highGPA(tim)
    highGPA(will)
    interview(ann)
    interview(ben)
    interview(bob)
    interview(mike)
    interview(pat)
    interview(peter)
    interview(tom)
    interview(yan)
    interview(zac)
    interview(zelda)
    minority(ben)
    minority(dee)
    minority(mary)
    minority(paul)
    minority(sam)
    minority(van)
    minority(vic)
    minority(walt)
    minority(zac)
    minority(zelda)
    n_eligible(ben)
    n_eligible(tom)
    n_eligible(van)
    n_eligible(zelda)
    n_fairGPA(ben)
    n_fairGPA(tom)
    n_fairGPA(van)
    n_fairGPA(zelda)
    n_highGPA(ben)
    n_highGPA(tom)
    n_highGPA(van)
    n_highGPA(zelda)
    n_minority(yan)
